Optimal - objective value -4690.00000000
      6 x_6                    1                       0
     59 x_59                   1                       0
     88 x_88                   1                       0
    151 x_151                  1                       0
    152 x_152                  1                       0
    169 x_169                  1                       0
    171 x_171                  1                       0
    172 x_172                  1                       0
    278 x_278                  1                       0
    286 x_286                  1         -11.2981366459627
    324 x_324                  1         0.88819875776403
    358 x_358                  1                       0
    400 x_400                  1                       0
    468 x_468                  1                       0
    595 x_595                  1                       0
    596 x_596                  1                       0
    601 x_601                  1                       0
    612 x_612                  1                       0
    634 x_634                  1                       0
    675 x_675                  1                       0
    790 x_790                  1                       0
    806 x_806                  1                      75
    934 x_934                  1         36.1925465838509
    937 x_937                  1                       0
    996 x_996                  1                       0
   1013 x_1013                 1                       0
   1090 x_1090                 1                       0
   1132 x_1132                 1                       0
   1140 x_1140                 1                     -37
   1141 x_1141                 1                       0
   1158 x_1158                 1                     -15
   1207 x_1207                 1                       0
   1245 x_1245                 1                       0
   1267 x_1267                 1                       0
   1340 x_1340                 1         31.8571428571429
   1354 x_1354                 1         8.75776397515529
   1381 x_1381                 1         22.6459627329192
   1387 x_1387                 1                       0
   1391 x_1391                 1         16.1863354037267
   1425 x_1425                 1                       0
   1446 x_1446                 1                       0
   1453 x_1453                 1                       0
   1465 x_1465                 1                     -46
   1503 x_1503                 1                       0
   1511 x_1511                 1                       1
   1523 x_1523                 1                       0
   1576 x_1576                 1                       0
   1589 x_1589                 1                       0
   1602 x_1602                 1                       0
   1625 x_1625                 1         -72.0621118012422
   1718 x_1718                 1                       0
   1766 x_1766                 1                       0
   1768 x_1768                 1         -15.3850931677018
   1771 x_1771                 1         41.8198757763975
   1780 x_1780                 1                       0
   1811 x_1811                 1         -32.8571428571428
   1869 x_1869                 1                       0
   1872 x_1872                 1                       0
   1913 x_1913                 1         -51.0496894409938
   1924 x_1924                 1                       0
   1942 x_1942                 1                       0
   1957 x_1957                 1         -3.78260869565206
   1963 x_1963                 1         31.5341614906832
   1965 x_1965                 1         13.5093167701863
   1995 x_1995                 1                     -26
   2093 x_2093                 1                       0
   2143 x_2143                 1                       0
   2147 x_2147                 1                       0
   2190 x_2190                 1         -12.0869565217391
   2193 x_2193                 1                       0
